peakDumbCharging = 25900; 
Machine = anon_enum(16); 
machineSpeed = [3700,3700,3700,3700,3700,3700,3700,3700,3700,3700,3700,3700,3700,3700,3700,3700]; 
machineLoad = [3700,3700,3700,3700,3700,3700,3700,3700,3700,3700,3700,3700,3700,3700,3700,3700]; 
Car = anon_enum(28); 
demandCar = [4040,26360,7680,560,29200,7840,17040,1720,21560,35280,3480,14640,6080,14240,2720,80,8280,4360,17760,12200,18200,11960,2360,19080,14080,2440,2160,10080]; 
arrivalCar = [73,67,67,67,63,62,60,60,55,55,53,53,52,50,50,50,50,48,47,45,45,44,44,43,40,40,40,33]; 
departureCar = [75,79,72,71,72,65,66,61,65,72,56,58,57,56,52,51,58,51,53,50,52,51,46,50,45,42,46,37]; 
